p cnf 65 915
4 7 11 16 22 29 37 46 56 67 79 92 106 0
8 12 17 23 30 38 47 57 68 80 93 107 122 0
13 18 24 31 39 48 58 69 81 94 108 123 139 0
19 25 32 40 49 59 70 82 95 109 124 140 157 0
26 33 41 50 60 71 83 96 110 125 141 158 176 0
-4 -8 0
-7 -12 0
-11 -17 0
-16 -23 0
-22 -30 0
-29 -38 0
-37 -47 0
-46 -57 0
-56 -68 0
-67 -80 0
-79 -93 0
-92 -107 0
-106 -122 0
-4 -13 0
-7 -18 0
-11 -24 0
-16 -31 0
-22 -39 0
-29 -48 0
-37 -58 0
-46 -69 0
-56 -81 0
-67 -94 0
-79 -108 0
-92 -123 0
-106 -139 0
-4 -19 0
-7 -25 0
-11 -32 0
-16 -40 0
-22 -49 0
-29 -59 0
-37 -70 0
-46 -82 0
-56 -95 0
-67 -109 0
-79 -124 0
-92 -140 0
-106 -157 0
-4 -26 0
-7 -33 0
-11 -41 0
-16 -50 0
-22 -60 0
-29 -71 0
-37 -83 0
-46 -96 0
-56 -110 0
-67 -125 0
-79 -141 0
-92 -158 0
-106 -176 0
-8 -13 0
-12 -18 0
-17 -24 0
-23 -31 0
-30 -39 0
-38 -48 0
-47 -58 0
-57 -69 0
-68 -81 0
-80 -94 0
-93 -108 0
-107 -123 0
-122 -139 0
-8 -19 0
-12 -25 0
-17 -32 0
-23 -40 0
-30 -49 0
-38 -59 0
-47 -70 0
-57 -82 0
-68 -95 0
-80 -109 0
-93 -124 0
-107 -140 0
-122 -157 0
-8 -26 0
-12 -33 0
-17 -41 0
-23 -50 0
-30 -60 0
-38 -71 0
-47 -83 0
-57 -96 0
-68 -110 0
-80 -125 0
-93 -141 0
-107 -158 0
-122 -176 0
-13 -19 0
-18 -25 0
-24 -32 0
-31 -40 0
-39 -49 0
-48 -59 0
-58 -70 0
-69 -82 0
-81 -95 0
-94 -109 0
-108 -124 0
-123 -140 0
-139 -157 0
-13 -26 0
-18 -33 0
-24 -41 0
-31 -50 0
-39 -60 0
-48 -71 0
-58 -83 0
-69 -96 0
-81 -110 0
-94 -125 0
-108 -141 0
-123 -158 0
-139 -176 0
-19 -26 0
-25 -33 0
-32 -41 0
-40 -50 0
-49 -60 0
-59 -71 0
-70 -83 0
-82 -96 0
-95 -110 0
-109 -125 0
-124 -141 0
-140 -158 0
-157 -176 0
-4 -17 0
-4 -38 0
-4 -57 0
-4 -68 0
-4 -80 0
-4 -93 0
-4 -107 0
-7 -57 0
-7 -80 0
-7 -93 0
-7 -122 0
-11 -23 0
-11 -68 0
-11 -93 0
-11 -107 0
-11 -122 0
-16 -30 0
-16 -47 0
-16 -57 0
-16 -93 0
-22 -47 0
-22 -57 0
-22 -80 0
-29 -57 0
-29 -68 0
-29 -107 0
-37 -68 0
-37 -80 0
-37 -93 0
-37 -107 0
-37 -122 0
-46 -68 0
-46 -80 0
-46 -107 0
-56 -80 0
-56 -93 0
-56 -107 0
-67 -122 0
-92 -122 0
-4 -24 0
-4 -48 0
-4 -69 0
-4 -81 0
-4 -94 0
-4 -108 0
-4 -123 0
-7 -69 0
-7 -94 0
-7 -108 0
-7 -139 0
-11 -31 0
-11 -81 0
-11 -108 0
-11 -123 0
-11 -139 0
-16 -39 0
-16 -58 0
-16 -69 0
-16 -108 0
-22 -58 0
-22 -69 0
-22 -94 0
-29 -69 0
-29 -81 0
-29 -123 0
-37 -81 0
-37 -94 0
-37 -108 0
-37 -123 0
-37 -139 0
-46 -81 0
-46 -94 0
-46 -123 0
-56 -94 0
-56 -108 0
-56 -123 0
-67 -139 0
-92 -139 0
-4 -32 0
-4 -59 0
-4 -82 0
-4 -95 0
-4 -109 0
-4 -124 0
-4 -140 0
-7 -82 0
-7 -109 0
-7 -124 0
-7 -157 0
-11 -40 0
-11 -95 0
-11 -124 0
-11 -140 0
-11 -157 0
-16 -49 0
-16 -70 0
-16 -82 0
-16 -124 0
-22 -70 0
-22 -82 0
-22 -109 0
-29 -82 0
-29 -95 0
-29 -140 0
-37 -95 0
-37 -109 0
-37 -124 0
-37 -140 0
-37 -157 0
-46 -95 0
-46 -109 0
-46 -140 0
-56 -109 0
-56 -124 0
-56 -140 0
-67 -157 0
-92 -157 0
-4 -41 0
-4 -71 0
-4 -96 0
-4 -110 0
-4 -125 0
-4 -141 0
-4 -158 0
-7 -96 0
-7 -125 0
-7 -141 0
-7 -176 0
-11 -50 0
-11 -110 0
-11 -141 0
-11 -158 0
-11 -176 0
-16 -60 0
-16 -83 0
-16 -96 0
-16 -141 0
-22 -83 0
-22 -96 0
-22 -125 0
-29 -96 0
-29 -110 0
-29 -158 0
-37 -110 0
-37 -125 0
-37 -141 0
-37 -158 0
-37 -176 0
-46 -110 0
-46 -125 0
-46 -158 0
-56 -125 0
-56 -141 0
-56 -158 0
-67 -176 0
-92 -176 0
-8 -11 0
-8 -29 0
-8 -46 0
-8 -56 0
-8 -67 0
-8 -79 0
-8 -92 0
-12 -46 0
-12 -67 0
-12 -79 0
-12 -106 0
-17 -16 0
-17 -56 0
-17 -79 0
-17 -92 0
-17 -106 0
-23 -22 0
-23 -37 0
-23 -46 0
-23 -79 0
-30 -37 0
-30 -46 0
-30 -67 0
-38 -46 0
-38 -56 0
-38 -92 0
-47 -56 0
-47 -67 0
-47 -79 0
-47 -92 0
-47 -106 0
-57 -56 0
-57 -67 0
-57 -92 0
-68 -67 0
-68 -79 0
-68 -92 0
-80 -106 0
-107 -106 0
-8 -24 0
-8 -48 0
-8 -69 0
-8 -81 0
-8 -94 0
-8 -108 0
-8 -123 0
-12 -69 0
-12 -94 0
-12 -108 0
-12 -139 0
-17 -31 0
-17 -81 0
-17 -108 0
-17 -123 0
-17 -139 0
-23 -39 0
-23 -58 0
-23 -69 0
-23 -108 0
-30 -58 0
-30 -69 0
-30 -94 0
-38 -69 0
-38 -81 0
-38 -123 0
-47 -81 0
-47 -94 0
-47 -108 0
-47 -123 0
-47 -139 0
-57 -81 0
-57 -94 0
-57 -123 0
-68 -94 0
-68 -108 0
-68 -123 0
-80 -139 0
-107 -139 0
-8 -32 0
-8 -59 0
-8 -82 0
-8 -95 0
-8 -109 0
-8 -124 0
-8 -140 0
-12 -82 0
-12 -109 0
-12 -124 0
-12 -157 0
-17 -40 0
-17 -95 0
-17 -124 0
-17 -140 0
-17 -157 0
-23 -49 0
-23 -70 0
-23 -82 0
-23 -124 0
-30 -70 0
-30 -82 0
-30 -109 0
-38 -82 0
-38 -95 0
-38 -140 0
-47 -95 0
-47 -109 0
-47 -124 0
-47 -140 0
-47 -157 0
-57 -95 0
-57 -109 0
-57 -140 0
-68 -109 0
-68 -124 0
-68 -140 0
-80 -157 0
-107 -157 0
-8 -41 0
-8 -71 0
-8 -96 0
-8 -110 0
-8 -125 0
-8 -141 0
-8 -158 0
-12 -96 0
-12 -125 0
-12 -141 0
-12 -176 0
-17 -50 0
-17 -110 0
-17 -141 0
-17 -158 0
-17 -176 0
-23 -60 0
-23 -83 0
-23 -96 0
-23 -141 0
-30 -83 0
-30 -96 0
-30 -125 0
-38 -96 0
-38 -110 0
-38 -158 0
-47 -110 0
-47 -125 0
-47 -141 0
-47 -158 0
-47 -176 0
-57 -110 0
-57 -125 0
-57 -158 0
-68 -125 0
-68 -141 0
-68 -158 0
-80 -176 0
-107 -176 0
-13 -11 0
-13 -29 0
-13 -46 0
-13 -56 0
-13 -67 0
-13 -79 0
-13 -92 0
-18 -46 0
-18 -67 0
-18 -79 0
-18 -106 0
-24 -16 0
-24 -56 0
-24 -79 0
-24 -92 0
-24 -106 0
-31 -22 0
-31 -37 0
-31 -46 0
-31 -79 0
-39 -37 0
-39 -46 0
-39 -67 0
-48 -46 0
-48 -56 0
-48 -92 0
-58 -56 0
-58 -67 0
-58 -79 0
-58 -92 0
-58 -106 0
-69 -56 0
-69 -67 0
-69 -92 0
-81 -67 0
-81 -79 0
-81 -92 0
-94 -106 0
-123 -106 0
-13 -17 0
-13 -38 0
-13 -57 0
-13 -68 0
-13 -80 0
-13 -93 0
-13 -107 0
-18 -57 0
-18 -80 0
-18 -93 0
-18 -122 0
-24 -23 0
-24 -68 0
-24 -93 0
-24 -107 0
-24 -122 0
-31 -30 0
-31 -47 0
-31 -57 0
-31 -93 0
-39 -47 0
-39 -57 0
-39 -80 0
-48 -57 0
-48 -68 0
-48 -107 0
-58 -68 0
-58 -80 0
-58 -93 0
-58 -107 0
-58 -122 0
-69 -68 0
-69 -80 0
-69 -107 0
-81 -80 0
-81 -93 0
-81 -107 0
-94 -122 0
-123 -122 0
-13 -32 0
-13 -59 0
-13 -82 0
-13 -95 0
-13 -109 0
-13 -124 0
-13 -140 0
-18 -82 0
-18 -109 0
-18 -124 0
-18 -157 0
-24 -40 0
-24 -95 0
-24 -124 0
-24 -140 0
-24 -157 0
-31 -49 0
-31 -70 0
-31 -82 0
-31 -124 0
-39 -70 0
-39 -82 0
-39 -109 0
-48 -82 0
-48 -95 0
-48 -140 0
-58 -95 0
-58 -109 0
-58 -124 0
-58 -140 0
-58 -157 0
-69 -95 0
-69 -109 0
-69 -140 0
-81 -109 0
-81 -124 0
-81 -140 0
-94 -157 0
-123 -157 0
-13 -41 0
-13 -71 0
-13 -96 0
-13 -110 0
-13 -125 0
-13 -141 0
-13 -158 0
-18 -96 0
-18 -125 0
-18 -141 0
-18 -176 0
-24 -50 0
-24 -110 0
-24 -141 0
-24 -158 0
-24 -176 0
-31 -60 0
-31 -83 0
-31 -96 0
-31 -141 0
-39 -83 0
-39 -96 0
-39 -125 0
-48 -96 0
-48 -110 0
-48 -158 0
-58 -110 0
-58 -125 0
-58 -141 0
-58 -158 0
-58 -176 0
-69 -110 0
-69 -125 0
-69 -158 0
-81 -125 0
-81 -141 0
-81 -158 0
-94 -176 0
-123 -176 0
-19 -11 0
-19 -29 0
-19 -46 0
-19 -56 0
-19 -67 0
-19 -79 0
-19 -92 0
-25 -46 0
-25 -67 0
-25 -79 0
-25 -106 0
-32 -16 0
-32 -56 0
-32 -79 0
-32 -92 0
-32 -106 0
-40 -22 0
-40 -37 0
-40 -46 0
-40 -79 0
-49 -37 0
-49 -46 0
-49 -67 0
-59 -46 0
-59 -56 0
-59 -92 0
-70 -56 0
-70 -67 0
-70 -79 0
-70 -92 0
-70 -106 0
-82 -56 0
-82 -67 0
-82 -92 0
-95 -67 0
-95 -79 0
-95 -92 0
-109 -106 0
-140 -106 0
-19 -17 0
-19 -38 0
-19 -57 0
-19 -68 0
-19 -80 0
-19 -93 0
-19 -107 0
-25 -57 0
-25 -80 0
-25 -93 0
-25 -122 0
-32 -23 0
-32 -68 0
-32 -93 0
-32 -107 0
-32 -122 0
-40 -30 0
-40 -47 0
-40 -57 0
-40 -93 0
-49 -47 0
-49 -57 0
-49 -80 0
-59 -57 0
-59 -68 0
-59 -107 0
-70 -68 0
-70 -80 0
-70 -93 0
-70 -107 0
-70 -122 0
-82 -68 0
-82 -80 0
-82 -107 0
-95 -80 0
-95 -93 0
-95 -107 0
-109 -122 0
-140 -122 0
-19 -24 0
-19 -48 0
-19 -69 0
-19 -81 0
-19 -94 0
-19 -108 0
-19 -123 0
-25 -69 0
-25 -94 0
-25 -108 0
-25 -139 0
-32 -31 0
-32 -81 0
-32 -108 0
-32 -123 0
-32 -139 0
-40 -39 0
-40 -58 0
-40 -69 0
-40 -108 0
-49 -58 0
-49 -69 0
-49 -94 0
-59 -69 0
-59 -81 0
-59 -123 0
-70 -81 0
-70 -94 0
-70 -108 0
-70 -123 0
-70 -139 0
-82 -81 0
-82 -94 0
-82 -123 0
-95 -94 0
-95 -108 0
-95 -123 0
-109 -139 0
-140 -139 0
-19 -41 0
-19 -71 0
-19 -96 0
-19 -110 0
-19 -125 0
-19 -141 0
-19 -158 0
-25 -96 0
-25 -125 0
-25 -141 0
-25 -176 0
-32 -50 0
-32 -110 0
-32 -141 0
-32 -158 0
-32 -176 0
-40 -60 0
-40 -83 0
-40 -96 0
-40 -141 0
-49 -83 0
-49 -96 0
-49 -125 0
-59 -96 0
-59 -110 0
-59 -158 0
-70 -110 0
-70 -125 0
-70 -141 0
-70 -158 0
-70 -176 0
-82 -110 0
-82 -125 0
-82 -158 0
-95 -125 0
-95 -141 0
-95 -158 0
-109 -176 0
-140 -176 0
-26 -11 0
-26 -29 0
-26 -46 0
-26 -56 0
-26 -67 0
-26 -79 0
-26 -92 0
-33 -46 0
-33 -67 0
-33 -79 0
-33 -106 0
-41 -16 0
-41 -56 0
-41 -79 0
-41 -92 0
-41 -106 0
-50 -22 0
-50 -37 0
-50 -46 0
-50 -79 0
-60 -37 0
-60 -46 0
-60 -67 0
-71 -46 0
-71 -56 0
-71 -92 0
-83 -56 0
-83 -67 0
-83 -79 0
-83 -92 0
-83 -106 0
-96 -56 0
-96 -67 0
-96 -92 0
-110 -67 0
-110 -79 0
-110 -92 0
-125 -106 0
-158 -106 0
-26 -17 0
-26 -38 0
-26 -57 0
-26 -68 0
-26 -80 0
-26 -93 0
-26 -107 0
-33 -57 0
-33 -80 0
-33 -93 0
-33 -122 0
-41 -23 0
-41 -68 0
-41 -93 0
-41 -107 0
-41 -122 0
-50 -30 0
-50 -47 0
-50 -57 0
-50 -93 0
-60 -47 0
-60 -57 0
-60 -80 0
-71 -57 0
-71 -68 0
-71 -107 0
-83 -68 0
-83 -80 0
-83 -93 0
-83 -107 0
-83 -122 0
-96 -68 0
-96 -80 0
-96 -107 0
-110 -80 0
-110 -93 0
-110 -107 0
-125 -122 0
-158 -122 0
-26 -24 0
-26 -48 0
-26 -69 0
-26 -81 0
-26 -94 0
-26 -108 0
-26 -123 0
-33 -69 0
-33 -94 0
-33 -108 0
-33 -139 0
-41 -31 0
-41 -81 0
-41 -108 0
-41 -123 0
-41 -139 0
-50 -39 0
-50 -58 0
-50 -69 0
-50 -108 0
-60 -58 0
-60 -69 0
-60 -94 0
-71 -69 0
-71 -81 0
-71 -123 0
-83 -81 0
-83 -94 0
-83 -108 0
-83 -123 0
-83 -139 0
-96 -81 0
-96 -94 0
-96 -123 0
-110 -94 0
-110 -108 0
-110 -123 0
-125 -139 0
-158 -139 0
-26 -32 0
-26 -59 0
-26 -82 0
-26 -95 0
-26 -109 0
-26 -124 0
-26 -140 0
-33 -82 0
-33 -109 0
-33 -124 0
-33 -157 0
-41 -40 0
-41 -95 0
-41 -124 0
-41 -140 0
-41 -157 0
-50 -49 0
-50 -70 0
-50 -82 0
-50 -124 0
-60 -70 0
-60 -82 0
-60 -109 0
-71 -82 0
-71 -95 0
-71 -140 0
-83 -95 0
-83 -109 0
-83 -124 0
-83 -140 0
-83 -157 0
-96 -95 0
-96 -109 0
-96 -140 0
-110 -109 0
-110 -124 0
-110 -140 0
-125 -157 0
-158 -157 0
